networks/zoo_148_2161/zoo_148_2161-lower.txt
Number of groups: 72
Flow 1: {1 2 0} {2 76 0} 
Flow 2: {1 4 0} {4 3 0} {3 77 0} 
Flow 3: {4 78 0} 
Flow 4: {4 11 0} {11 6 0} {6 80 0} 
Flow 5: {2 7 0} {7 8 0} {8 82 0} 
Flow 6: {2 68 0} {68 9 0} {9 83 0} 
Flow 7: {4 67 0} {67 27 0} {27 10 0} {10 84 0} 
Flow 8: {2 57 0} {57 12 0} {12 86 0} 
Flow 9: {27 15 0} {15 13 0} {13 87 0} 
Flow 10: {13 14 0} {14 88 0} 
Flow 11: {9 16 0} {16 90 0} 
Flow 12: {1 42 0} {42 18 0} {18 17 0} {17 91 0} 
Flow 13: {18 92 0} 
Flow 14: {1 50 0} {50 19 0} {19 93 0} 
Flow 15: {19 20 0} {20 94 0} 
Flow 16: {50 21 0} {21 95 0} 
Flow 17: {4 23 0} {23 22 0} {22 96 0} 
Flow 18: {23 97 0} 
Flow 19: {42 24 0} {24 98 0} 
Flow 20: {24 25 0} {25 99 0} 
Flow 21: {24 26 0} {26 100 0} 
Flow 22: {27 101 0} 
Flow 23: {9 30 0} {30 104 0} 
Flow 24: {16 32 0} {32 106 0} 
Flow 25: {30 34 0} {34 108 0} 
Flow 26: {67 35 0} {35 109 0} 
Flow 27: {67 36 0} {36 110 0} 
Flow 28: {68 38 0} {38 37 0} {37 111 0} 
Flow 29: {38 112 0} 
Flow 30: {38 39 0} {39 113 0} 
Flow 31: {38 40 0} {40 114 0} 
Flow 32: {18 41 0} {41 115 0} 
Flow 33: {42 116 0} 
Flow 34: {67 43 0} {43 117 0} 
Flow 35: {41 44 0} {44 118 0} 
Flow 36: {43 45 0} {45 119 0} 
Flow 37: {43 46 0} {46 120 0} 
Flow 38: {69 47 0} {47 121 0} 
Flow 38: {68 69 0} Flow 39: {68 52 0} {52 48 0} {48 122 0} 
Flow 40: {50 124 0} 
Flow 41: {34 56 0} {56 130 0} 
Flow 42: {57 58 0} {58 132 0} 
Flow 43: {1 59 0} {59 133 0} 
Flow 44: {59 60 0} {60 134 0} 
Flow 45: {34 61 0} {61 135 0} 
Flow 46: {1 74 0} {74 73 0} {73 65 0} {65 139 0} 
Flow 47: {67 141 0} 
Flow 48: {68 142 0} 
Flow 49: {69 143 0} 
Flow 50: {69 70 0} {70 144 0} 
Flow 51: {73 72 0} {72 71 0} {71 145 0} 
Flow 52: {72 146 0} 
Flow 53: {73 147 0} 
Flow 54: {74 148 0} 
Flow 55: {2 1 0} {1 75 0} 
Flow 56: {2 4 0} Flow 58: {8 6 0} Flow 59: {7 81 0} 
Flow 62: {9 27 0} Flow 63: {11 85 0} 
Flow 67: {15 89 0} 
Flow 80: {12 28 0} {28 102 0} 
Flow 81: {34 29 0} {29 103 0} 
Flow 83: {30 31 0} {31 105 0} 
Flow 85: {38 33 0} {33 107 0} 
Flow 87: {68 67 0} Flow 101: {32 49 0} {49 123 0} 
Flow 103: {50 51 0} {51 125 0} 
Flow 104: {52 126 0} 
Flow 105: {7 53 0} {53 127 0} 
Flow 106: {12 55 0} {55 129 0} 
Flow 108: {57 131 0} 
Flow 113: {34 63 0} {63 137 0} 
Flow 114: {38 64 0} {64 138 0} 
Flow 116: {3 66 0} {66 140 0} 
Flow 121: {70 71 0} Flow 125: {3 4 0} {4 1 0} Flow 126: {4 2 0} Flow 129: {4 42 0} Flow 135: {67 69 0} Flow 148: {11 12 0} Flow 156: {22 20 0} Flow 169: {35 33 0} Flow 173: {36 37 0} Flow 184: {35 48 0} Flow 198: {66 65 0} Flow 208: {5 8 0} {8 7 0} {7 2 0} Flow 210: {6 11 0} {11 4 0} Flow 229: {6 51 0} {51 50 0} Flow 270: {9 68 0} {68 2 0} Flow 272: {27 67 0} {67 4 0} Flow 284: {67 18 0} Flow 293: {17 26 0} Flow 307: {30 40 0} Flow 334: {71 72 0} Flow 337: {10 27 0} Flow 338: {27 9 0} Flow 354: {10 30 0} Flow 358: {10 40 0} {40 37 0} Flow 359: {40 38 0} Flow 397: {12 11 0} Flow 398: {12 57 0} {57 2 0} Flow 401: {6 8 0} Flow 425: {14 13 0} {13 15 0} {15 27 0} Flow 433: {15 16 0} Flow 498: {16 9 0} Flow 519: {17 18 0} {18 42 0} {42 1 0} Flow 520: {18 67 0} Flow 524: {26 24 0} Flow 526: {67 68 0} Flow 529: {18 43 0} Flow 530: {45 47 0} Flow 593: {41 62 0} {62 136 0} 
Flow 606: {19 50 0} {50 1 0} Flow 610: {51 6 0} Flow 618: {50 23 0} Flow 619: {23 24 0} Flow 643: {20 19 0} Flow 645: {20 22 0} {22 23 0} {23 4 0} Flow 670: {21 50 0} Flow 720: {23 50 0} Flow 733: {24 42 0} Flow 734: {24 23 0} Flow 747: {26 17 0} Flow 792: {25 24 0} Flow 859: {28 12 0} Flow 862: {30 9 0} Flow 870: {30 10 0} Flow 895: {37 36 0} Flow 929: {31 30 0} Flow 936: {32 16 0} Flow 958: {33 35 0} {35 67 0} Flow 959: {33 38 0} {38 68 0} Flow 964: {40 30 0} Flow 975: {34 30 0} Flow 1015: {36 67 0} Flow 1025: {37 40 0} Flow 1026: {37 38 0} Flow 1042: {40 10 0} Flow 1130: {39 38 0} Flow 1169: {41 18 0} Flow 1194: {42 4 0} Flow 1259: {43 18 0} Flow 1260: {43 67 0} Flow 1293: {46 44 0} Flow 1313: {44 41 0} Flow 1321: {44 46 0} {46 43 0} Flow 1326: {45 43 0} Flow 1386: {47 69 0} Flow 1413: {69 67 0} Flow 1414: {69 68 0} Flow 1428: {47 45 0} Flow 1478: {72 73 0} Flow 1480: {48 35 0} Flow 1481: {48 52 0} {52 68 0} Flow 1495: {49 32 0} Flow 1497: {49 14 0} Flow 1637: {53 7 0} Flow 1650: {54 58 0} {58 57 0} Flow 1657: {55 12 0} Flow 1664: {56 34 0} Flow 1744: {59 1 0} Flow 1772: {60 58 0} Flow 1780: {60 59 0} Flow 1781: {61 34 0} Flow 1794: {62 41 0} Flow 1802: {64 38 0} Flow 1810: {65 73 0} {73 74 0} {74 1 0} Flow 1812: {65 66 0} {66 3 0} Flow 1819: {71 70 0} {70 69 0} Time taken running everything: 0 seconds
