networks/zoo_148_2161/zoo_148_2161-lower.sol
<?xml version = "1.0" encoding="UTF-8" standalone="yes"?>
<CPLEXSolution version="1.2">
 <header
   problemName="networks/zoo_148_2161/zoo_148_2161-lower.lp"
   solutionName="incumbent"
   solutionIndex="-1"
   objectiveValue="72"
   solutionTypeValue="3"
   solutionTypeString="primal"
   solutionStatusValue="101"
   solutionStatusString="integer optimal solution"
   solutionMethodString="mip"
   primalFeasible="1"
   dualFeasible="1"
   MIPNodes="0"
   MIPIterations="0"
   writeLevel="3"/>
 <quality
   epInt="1.0000000000000001e-05"
   epRHS="9.9999999999999995e-07"
   maxIntInfeas="0"
   maxPrimalInfeas="0"
   maxX="1"
   maxSlack="1"/>
 <variables>
  <variable name="Y(1,2)" index="1" value="1"/>
  <variable name="Y(2,3)" index="148" value="1"/>
  <variable name="Y(3,4)" index="295" value="1"/>
  <variable name="Y(4,6)" index="443" value="1"/>
  <variable name="Y(5,8)" index="591" value="1"/>
  <variable name="Y(6,9)" index="738" value="1"/>
  <variable name="Y(7,10)" index="885" value="1"/>
  <variable name="Y(8,12)" index="1033" value="1"/>
  <variable name="Y(9,13)" index="1180" value="1"/>
  <variable name="Y(10,14)" index="1327" value="1"/>
  <variable name="Y(11,16)" index="1475" value="1"/>
  <variable name="Y(12,17)" index="1622" value="1"/>
  <variable name="Y(13,18)" index="1769" value="1"/>
  <variable name="Y(14,19)" index="1916" value="1"/>
  <variable name="Y(15,20)" index="2063" value="1"/>
  <variable name="Y(16,21)" index="2210" value="1"/>
  <variable name="Y(17,22)" index="2357" value="1"/>
  <variable name="Y(18,23)" index="2504" value="1"/>
  <variable name="Y(19,24)" index="2651" value="1"/>
  <variable name="Y(20,25)" index="2798" value="1"/>
  <variable name="Y(21,26)" index="2945" value="1"/>
  <variable name="Y(22,27)" index="3092" value="1"/>
  <variable name="Y(23,30)" index="3241" value="1"/>
  <variable name="Y(24,32)" index="3389" value="1"/>
  <variable name="Y(25,34)" index="3537" value="1"/>
  <variable name="Y(26,35)" index="3684" value="1"/>
  <variable name="Y(27,36)" index="3831" value="1"/>
  <variable name="Y(28,37)" index="3978" value="1"/>
  <variable name="Y(29,38)" index="4125" value="1"/>
  <variable name="Y(30,39)" index="4272" value="1"/>
  <variable name="Y(31,40)" index="4419" value="1"/>
  <variable name="Y(32,41)" index="4566" value="1"/>
  <variable name="Y(33,42)" index="4713" value="1"/>
  <variable name="Y(34,43)" index="4860" value="1"/>
  <variable name="Y(35,44)" index="5007" value="1"/>
  <variable name="Y(36,45)" index="5154" value="1"/>
  <variable name="Y(37,46)" index="5301" value="1"/>
  <variable name="Y(38,47)" index="5448" value="1"/>
  <variable name="Y(39,48)" index="5595" value="1"/>
  <variable name="Y(40,50)" index="5743" value="1"/>
  <variable name="Y(41,56)" index="5895" value="1"/>
  <variable name="Y(42,58)" index="6043" value="1"/>
  <variable name="Y(43,59)" index="6190" value="1"/>
  <variable name="Y(44,60)" index="6337" value="1"/>
  <variable name="Y(45,61)" index="6484" value="1"/>
  <variable name="Y(46,65)" index="6634" value="1"/>
  <variable name="Y(47,67)" index="6782" value="1"/>
  <variable name="Y(48,68)" index="6929" value="1"/>
  <variable name="Y(49,69)" index="7076" value="1"/>
  <variable name="Y(50,70)" index="7223" value="1"/>
  <variable name="Y(51,71)" index="7370" value="1"/>
  <variable name="Y(52,72)" index="7517" value="1"/>
  <variable name="Y(53,73)" index="7664" value="1"/>
  <variable name="Y(54,74)" index="7811" value="1"/>
  <variable name="Y(55,1)" index="7884" value="1"/>
  <variable name="Y(59,7)" index="8474" value="1"/>
  <variable name="Y(63,11)" index="9062" value="1"/>
  <variable name="Y(67,15)" index="9650" value="1"/>
  <variable name="Y(80,28)" index="11561" value="1"/>
  <variable name="Y(81,29)" index="11708" value="1"/>
  <variable name="Y(83,31)" index="12002" value="1"/>
  <variable name="Y(85,33)" index="12296" value="1"/>
  <variable name="Y(101,49)" index="14648" value="1"/>
  <variable name="Y(103,51)" index="14942" value="1"/>
  <variable name="Y(104,52)" index="15089" value="1"/>
  <variable name="Y(105,53)" index="15236" value="1"/>
  <variable name="Y(106,55)" index="15384" value="1"/>
  <variable name="Y(108,57)" index="15678" value="1"/>
  <variable name="Y(113,63)" index="16414" value="1"/>
  <variable name="Y(114,64)" index="16561" value="1"/>
  <variable name="Y(116,66)" index="16855" value="1"/>
  <variable name="Y(593,62)" index="86493" value="1"/>
  <variable name="X(1,2,1)" index="315506" value="1"/>
  <variable name="X(1,4,2)" index="317668" value="1"/>
  <variable name="X(1,42,12)" index="319839" value="1"/>
  <variable name="X(1,50,14)" index="322002" value="1"/>
  <variable name="X(1,59,43)" index="324192" value="1"/>
  <variable name="X(1,74,46)" index="326356" value="1"/>
  <variable name="X(1,75,55)" index="328526" value="1"/>
  <variable name="X(2,1,55)" index="330687" value="1"/>
  <variable name="X(2,4,56)" index="332849" value="1"/>
  <variable name="X(2,7,5)" index="334959" value="1"/>
  <variable name="X(2,57,8)" index="337123" value="1"/>
  <variable name="X(2,68,6)" index="339282" value="1"/>
  <variable name="X(2,76,1)" index="341438" value="1"/>
  <variable name="X(3,4,125)" index="343723" value="1"/>
  <variable name="X(3,66,116)" index="345875" value="1"/>
  <variable name="X(3,77,2)" index="347922" value="1"/>
  <variable name="X(4,1,125)" index="350206" value="1"/>
  <variable name="X(4,2,126)" index="352368" value="1"/>
  <variable name="X(4,3,2)" index="354405" value="1"/>
  <variable name="X(4,11,4)" index="356568" value="1"/>
  <variable name="X(4,23,17)" index="358742" value="1"/>
  <variable name="X(4,42,129)" index="361015" value="1"/>
  <variable name="X(4,67,7)" index="363054" value="1"/>
  <variable name="X(4,78,3)" index="365211" value="1"/>
  <variable name="X(5,8,208)" index="367577" value="1"/>
  <variable name="X(6,8,401)" index="369931" value="1"/>
  <variable name="X(6,11,210)" index="371901" value="1"/>
  <variable name="X(6,51,229)" index="374081" value="1"/>
  <variable name="X(6,80,4)" index="376017" value="1"/>
  <variable name="X(7,2,208)" index="378382" value="1"/>
  <variable name="X(7,8,5)" index="380340" value="1"/>
  <variable name="X(7,53,105)" index="382601" value="1"/>
  <variable name="X(7,81,59)" index="384716" value="1"/>
  <variable name="X(8,6,58)" index="386876" value="1"/>
  <variable name="X(8,7,208)" index="389187" value="1"/>
  <variable name="X(8,82,5)" index="391145" value="1"/>
  <variable name="X(9,16,11)" index="393312" value="1"/>
  <variable name="X(9,27,62)" index="395524" value="1"/>
  <variable name="X(9,30,23)" index="397646" value="1"/>
  <variable name="X(9,68,270)" index="400054" value="1"/>
  <variable name="X(9,83,6)" index="401951" value="1"/>
  <variable name="X(10,27,337)" index="404443" value="1"/>
  <variable name="X(10,30,354)" index="406621" value="1"/>
  <variable name="X(10,40,358)" index="408786" value="1"/>
  <variable name="X(10,84,7)" index="410596" value="1"/>
  <variable name="X(11,4,210)" index="412960" value="1"/>
  <variable name="X(11,6,4)" index="414915" value="1"/>
  <variable name="X(11,12,148)" index="417220" value="1"/>
  <variable name="X(11,85,63)" index="419296" value="1"/>
  <variable name="X(12,11,397)" index="421791" value="1"/>
  <variable name="X(12,28,80)" index="423635" value="1"/>
  <variable name="X(12,55,106)" index="425822" value="1"/>
  <variable name="X(12,57,398)" index="428275" value="1"/>
  <variable name="X(12,86,8)" index="430046" value="1"/>
  <variable name="X(13,14,10)" index="432209" value="1"/>
  <variable name="X(13,15,425)" index="434785" value="1"/>
  <variable name="X(13,87,9)" index="436530" value="1"/>
  <variable name="X(14,13,425)" index="439107" value="1"/>
  <variable name="X(14,88,10)" index="440853" value="1"/>
  <variable name="X(15,13,9)" index="443013" value="1"/>
  <variable name="X(15,16,433)" index="445598" value="1"/>
  <variable name="X(15,27,425)" index="447751" value="1"/>
  <variable name="X(15,89,67)" index="449554" value="1"/>
  <variable name="X(16,9,498)" index="452146" value="1"/>
  <variable name="X(16,32,24)" index="453833" value="1"/>
  <variable name="X(16,90,11)" index="455981" value="1"/>
  <variable name="X(17,18,519)" index="458650" value="1"/>
  <variable name="X(17,26,293)" index="460585" value="1"/>
  <variable name="X(17,91,12)" index="462465" value="1"/>
  <variable name="X(18,17,12)" index="464626" value="1"/>
  <variable name="X(18,41,32)" index="466807" value="1"/>
  <variable name="X(18,42,519)" index="469455" value="1"/>
  <variable name="X(18,43,529)" index="471626" value="1"/>
  <variable name="X(18,67,520)" index="473778" value="1"/>
  <variable name="X(18,92,13)" index="475432" value="1"/>
  <variable name="X(19,20,15)" index="477595" value="1"/>
  <variable name="X(19,50,606)" index="480347" value="1"/>
  <variable name="X(19,93,14)" index="481916" value="1"/>
  <variable name="X(20,19,643)" index="484706" value="1"/>
  <variable name="X(20,22,645)" index="486869" value="1"/>
  <variable name="X(20,94,15)" index="488400" value="1"/>
  <variable name="X(21,50,670)" index="491216" value="1"/>
  <variable name="X(21,95,16)" index="492723" value="1"/>
  <variable name="X(22,20,156)" index="495024" value="1"/>
  <variable name="X(22,23,645)" index="497674" value="1"/>
  <variable name="X(22,96,17)" index="499207" value="1"/>
  <variable name="X(23,4,645)" index="501996" value="1"/>
  <variable name="X(23,22,17)" index="503529" value="1"/>
  <variable name="X(23,24,619)" index="506292" value="1"/>
  <variable name="X(23,50,720)" index="508554" value="1"/>
  <variable name="X(23,97,18)" index="510013" value="1"/>
  <variable name="X(24,23,734)" index="512890" value="1"/>
  <variable name="X(24,25,20)" index="514337" value="1"/>
  <variable name="X(24,26,21)" index="516499" value="1"/>
  <variable name="X(24,42,733)" index="519372" value="1"/>
  <variable name="X(24,98,19)" index="520819" value="1"/>
  <variable name="X(25,24,792)" index="523753" value="1"/>
  <variable name="X(25,99,20)" index="525142" value="1"/>
  <variable name="X(26,17,747)" index="528030" value="1"/>
  <variable name="X(26,24,524)" index="529968" value="1"/>
  <variable name="X(26,100,21)" index="531626" value="1"/>
  <variable name="X(27,9,338)" index="534104" value="1"/>
  <variable name="X(27,10,7)" index="535934" value="1"/>
  <variable name="X(27,15,9)" index="538097" value="1"/>
  <variable name="X(27,67,272)" index="540521" value="1"/>
  <variable name="X(27,101,22)" index="542432" value="1"/>
  <variable name="X(28,12,859)" index="545430" value="1"/>
  <variable name="X(28,102,80)" index="546812" value="1"/>
  <variable name="X(29,103,81)" index="548974" value="1"/>
  <variable name="X(30,9,862)" index="551916" value="1"/>
  <variable name="X(30,10,870)" index="554085" value="1"/>
  <variable name="X(30,31,83)" index="555459" value="1"/>
  <variable name="X(30,34,25)" index="557562" value="1"/>
  <variable name="X(30,40,307)" index="560005" value="1"/>
  <variable name="X(30,104,23)" index="561882" value="1"/>
  <variable name="X(31,30,929)" index="564949" value="1"/>
  <variable name="X(31,105,83)" index="566264" value="1"/>
  <variable name="X(32,16,936)" index="569278" value="1"/>
  <variable name="X(32,49,101)" index="570604" value="1"/>
  <variable name="X(32,106,24)" index="572688" value="1"/>
  <variable name="X(33,35,958)" index="575783" value="1"/>
  <variable name="X(33,38,959)" index="577945" value="1"/>
  <variable name="X(33,107,85)" index="579232" value="1"/>
  <variable name="X(34,29,81)" index="581389" value="1"/>
  <variable name="X(34,30,975)" index="584444" value="1"/>
  <variable name="X(34,56,41)" index="585671" value="1"/>
  <variable name="X(34,61,45)" index="587836" value="1"/>
  <variable name="X(34,63,113)" index="590065" value="1"/>
  <variable name="X(34,108,25)" index="592138" value="1"/>
  <variable name="X(35,33,169)" index="594443" value="1"/>
  <variable name="X(35,48,184)" index="596619" value="1"/>
  <variable name="X(35,67,958)" index="599554" value="1"/>
  <variable name="X(35,109,26)" index="600783" value="1"/>
  <variable name="X(36,37,173)" index="603091" value="1"/>
  <variable name="X(36,67,1015)" index="606094" value="1"/>
  <variable name="X(36,110,27)" index="607267" value="1"/>
  <variable name="X(37,36,895)" index="610296" value="1"/>
  <variable name="X(37,38,1026)" index="612588" value="1"/>
  <variable name="X(37,40,1025)" index="614748" value="1"/>
  <variable name="X(37,111,28)" index="615912" value="1"/>
  <variable name="X(38,33,85)" index="618130" value="1"/>
  <variable name="X(38,37,28)" index="620234" value="1"/>
  <variable name="X(38,39,30)" index="622397" value="1"/>
  <variable name="X(38,40,31)" index="624559" value="1"/>
  <variable name="X(38,64,114)" index="626803" value="1"/>
  <variable name="X(38,68,959)" index="629809" value="1"/>
  <variable name="X(38,112,29)" index="631040" value="1"/>
  <variable name="X(39,38,1130)" index="634302" value="1"/>
  <variable name="X(39,113,30)" index="635363" value="1"/>
  <variable name="X(40,10,1042)" index="638536" value="1"/>
  <variable name="X(40,30,964)" index="640619" value="1"/>
  <variable name="X(40,37,358)" index="642174" value="1"/>
  <variable name="X(40,38,359)" index="644336" value="1"/>
  <variable name="X(40,114,31)" index="646169" value="1"/>
  <variable name="X(41,18,1169)" index="649468" value="1"/>
  <variable name="X(41,44,35)" index="650495" value="1"/>
  <variable name="X(41,62,593)" index="653214" value="1"/>
  <variable name="X(41,115,32)" index="654814" value="1"/>
  <variable name="X(42,1,519)" index="657462" value="1"/>
  <variable name="X(42,4,1194)" index="660298" value="1"/>
  <variable name="X(42,18,12)" index="661277" value="1"/>
  <variable name="X(42,24,19)" index="663445" value="1"/>
  <variable name="X(42,116,33)" index="665620" value="1"/>
  <variable name="X(43,18,1259)" index="669007" value="1"/>
  <variable name="X(43,45,36)" index="669945" value="1"/>
  <variable name="X(43,46,37)" index="672107" value="1"/>
  <variable name="X(43,67,1260)" index="675491" value="1"/>
  <variable name="X(43,117,34)" index="676426" value="1"/>
  <variable name="X(44,41,1313)" index="679866" value="1"/>
  <variable name="X(44,46,1321)" index="682035" value="1"/>
  <variable name="X(44,118,35)" index="682910" value="1"/>
  <variable name="X(45,43,1326)" index="686362" value="1"/>
  <variable name="X(45,47,530)" index="687727" value="1"/>
  <variable name="X(45,119,36)" index="689394" value="1"/>
  <variable name="X(46,43,1321)" index="692840" value="1"/>
  <variable name="X(46,44,1293)" index="694973" value="1"/>
  <variable name="X(46,120,37)" index="695878" value="1"/>
  <variable name="X(47,45,1428)" index="699430" value="1"/>
  <variable name="X(47,69,1386)" index="701549" value="1"/>
  <variable name="X(47,121,38)" index="702362" value="1"/>
  <variable name="X(48,35,1480)" index="705965" value="1"/>
  <variable name="X(48,52,1481)" index="708127" value="1"/>
  <variable name="X(48,122,39)" index="708846" value="1"/>
  <variable name="X(49,14,1497)" index="712465" value="1"/>
  <variable name="X(49,32,1495)" index="714624" value="1"/>
  <variable name="X(49,123,101)" index="715391" value="1"/>
  <variable name="X(50,1,606)" index="718057" value="1"/>
  <variable name="X(50,19,14)" index="719626" value="1"/>
  <variable name="X(50,21,16)" index="721789" value="1"/>
  <variable name="X(50,23,618)" index="724552" value="1"/>
  <variable name="X(50,51,103)" index="726198" value="1"/>
  <variable name="X(50,124,40)" index="728296" value="1"/>
  <variable name="X(51,6,610)" index="731027" value="1"/>
  <variable name="X(51,50,229)" index="732807" value="1"/>
  <variable name="X(51,125,103)" index="734842" value="1"/>
  <variable name="X(52,48,39)" index="736939" value="1"/>
  <variable name="X(52,68,1481)" index="740542" value="1"/>
  <variable name="X(52,126,104)" index="741326" value="1"/>
  <variable name="X(53,7,1637)" index="745020" value="1"/>
  <variable name="X(53,127,105)" index="745649" value="1"/>
  <variable name="X(54,58,1650)" index="749355" value="1"/>
  <variable name="X(55,12,1657)" index="751523" value="1"/>
  <variable name="X(55,129,106)" index="752133" value="1"/>
  <variable name="X(56,34,1664)" index="755852" value="1"/>
  <variable name="X(56,130,41)" index="756390" value="1"/>
  <variable name="X(57,2,398)" index="758908" value="1"/>
  <variable name="X(57,12,8)" index="760679" value="1"/>
  <variable name="X(57,58,42)" index="762874" value="1"/>
  <variable name="X(57,131,108)" index="765101" value="1"/>
  <variable name="X(58,57,1650)" index="768804" value="1"/>
  <variable name="X(58,132,42)" index="769357" value="1"/>
  <variable name="X(59,1,1744)" index="773220" value="1"/>
  <variable name="X(59,60,44)" index="773681" value="1"/>
  <variable name="X(59,133,43)" index="775841" value="1"/>
  <variable name="X(60,58,1772)" index="779731" value="1"/>
  <variable name="X(60,59,1780)" index="781900" value="1"/>
  <variable name="X(60,134,44)" index="782325" value="1"/>
  <variable name="X(61,34,1781)" index="786223" value="1"/>
  <variable name="X(61,135,45)" index="786648" value="1"/>
  <variable name="X(62,41,1794)" index="790558" value="1"/>
  <variable name="X(62,136,593)" index="791518" value="1"/>
  <variable name="X(63,137,113)" index="793199" value="1"/>
  <variable name="X(64,38,1802)" index="797049" value="1"/>
  <variable name="X(64,138,114)" index="797522" value="1"/>
  <variable name="X(65,66,1812)" index="801381" value="1"/>
  <variable name="X(65,73,1810)" index="803540" value="1"/>
  <variable name="X(65,139,46)" index="803937" value="1"/>
  <variable name="X(66,3,1812)" index="807864" value="1"/>
  <variable name="X(66,65,198)" index="808411" value="1"/>
  <variable name="X(66,140,116)" index="810490" value="1"/>
  <variable name="X(67,4,272)" index="812807" value="1"/>
  <variable name="X(67,18,284)" index="814980" value="1"/>
  <variable name="X(67,27,7)" index="816864" value="1"/>
  <variable name="X(67,35,26)" index="819044" value="1"/>
  <variable name="X(67,36,27)" index="821206" value="1"/>
  <variable name="X(67,43,34)" index="823374" value="1"/>
  <variable name="X(67,68,526)" index="826027" value="1"/>
  <variable name="X(67,69,135)" index="827797" value="1"/>
  <variable name="X(67,141,47)" index="829870" value="1"/>
  <variable name="X(68,2,270)" index="832254" value="1"/>
  <variable name="X(68,9,6)" index="834151" value="1"/>
  <variable name="X(68,38,28)" index="836334" value="1"/>
  <variable name="X(68,52,39)" index="838506" value="1"/>
  <variable name="X(68,67,87)" index="840715" value="1"/>
  <variable name="X(68,69,38)" index="842827" value="1"/>
  <variable name="X(68,142,48)" index="844998" value="1"/>
  <variable name="X(69,47,38)" index="847149" value="1"/>
  <variable name="X(69,67,1413)" index="850685" value="1"/>
  <variable name="X(69,68,1414)" index="852847" value="1"/>
  <variable name="X(69,70,50)" index="853644" value="1"/>
  <variable name="X(69,143,49)" index="855804" value="1"/>
  <variable name="X(70,69,1819)" index="859735" value="1"/>
  <variable name="X(70,71,121)" index="860198" value="1"/>
  <variable name="X(70,144,50)" index="862288" value="1"/>
  <variable name="X(71,70,1819)" index="866218" value="1"/>
  <variable name="X(71,72,334)" index="866894" value="1"/>
  <variable name="X(71,145,51)" index="868772" value="1"/>
  <variable name="X(72,71,51)" index="870933" value="1"/>
  <variable name="X(72,73,1478)" index="874521" value="1"/>
  <variable name="X(72,146,52)" index="875256" value="1"/>
  <variable name="X(73,65,46)" index="877411" value="1"/>
  <variable name="X(73,72,51)" index="879577" value="1"/>
  <variable name="X(73,74,1810)" index="883497" value="1"/>
  <variable name="X(73,147,53)" index="883901" value="1"/>
  <variable name="X(74,1,1810)" index="887819" value="1"/>
  <variable name="X(74,73,46)" index="888216" value="1"/>
  <variable name="X(74,148,54)" index="890385" value="1"/>
 </variables>
</CPLEXSolution>
